instances/knapsack/discrete/knapsack_90_6.lp
\ Model knapsack_90_6
\ LP format - for model browsing. Use MPS format to capture full model detail.
\ Signature: 0xc29ff4c0dcb79651
Minimize
  - 57 x[0] - 37 x[1] - 27 x[2] - 43 x[3] - 60 x[4] - 76 x[5] - 20 x[6]
   - 26 x[7] - 5 x[8] - 17 x[9] - 66 x[10] - 94 x[11] - 42 x[12] - 5 x[13]
   - 2 x[14] - 15 x[15] - 85 x[16] - x[17] - 53 x[18] - 20 x[19] - 32 x[20]
   - 22 x[21] - 35 x[22] - 11 x[23] - 96 x[24] - 37 x[25] - 51 x[26]
   - 98 x[27] - 41 x[28] - 91 x[29] - 8 x[30] - 35 x[31] - 99 x[32]
   - 66 x[33] - 62 x[34] - 68 x[35] - 72 x[36] - 70 x[37] - 69 x[38]
   - 26 x[39] - 7 x[40] - 20 x[41] - 72 x[42] - 70 x[43] - 17 x[44]
   - 30 x[45] - 43 x[46] - 99 x[47] - 55 x[48] - 80 x[49] - 62 x[50]
   - 73 x[51] - 18 x[52] - 12 x[53] - 55 x[54] - 21 x[55] - 85 x[56]
   - 23 x[57] - 15 x[58] - 70 x[59] - 51 x[60] - 49 x[61] - 28 x[62]
   - 24 x[63] - 49 x[64] - 64 x[65] - 32 x[66] - 72 x[67] - 55 x[68]
   - 28 x[69] - 76 x[70] - 10 x[71] - 76 x[72] - 32 x[73] - 41 x[74]
   - 45 x[75] - 37 x[76] - 96 x[77] - 35 x[78] - 66 x[79] - 26 x[80]
   - x[81] - 40 x[82] - 77 x[83] - 64 x[84] - 3 x[85] - 29 x[86] - 30 x[87]
   - 99 x[88] - 5 x[89]
Subject To
 primal_upper: 68 x[0] + 69 x[1] + 19 x[2] + 32 x[3] + 21 x[4] + 94 x[5]
   + 10 x[6] + 8 x[7] + 10 x[8] + 51 x[9] + 20 x[10] + 12 x[11] + 85 x[12]
   + 81 x[13] + 97 x[14] + 89 x[15] + 22 x[16] + 9 x[17] + 18 x[18]
   + 7 x[19] + 46 x[20] + 12 x[21] + 9 x[22] + 27 x[23] + 45 x[24]
   + 13 x[25] + 83 x[26] + 24 x[27] + 94 x[28] + 24 x[29] + 6 x[30]
   + 64 x[31] + 48 x[32] + 14 x[33] + 97 x[34] + 26 x[35] + 89 x[36]
   + 45 x[37] + 69 x[38] + 19 x[39] + 96 x[40] + 14 x[41] + 47 x[42]
   + 54 x[43] + 20 x[44] + 79 x[45] + 18 x[46] + 38 x[47] + 60 x[48]
   + 85 x[49] + 31 x[50] + 49 x[51] + 58 x[52] + 77 x[53] + 65 x[54]
   + 72 x[55] + 38 x[56] + 87 x[57] + 97 x[58] + 47 x[59] + 49 x[60]
   + 59 x[61] + 92 x[62] + 19 x[63] + 100 x[64] + 65 x[65] + 9 x[66]
   + 39 x[67] + 97 x[68] + 90 x[69] + 18 x[70] + 66 x[71] + 47 x[72]
   + 64 x[73] + 100 x[74] + 73 x[75] + 31 x[76] + 16 x[77] + 77 x[78]
   + 35 x[79] + 30 x[80] + 30 x[81] + 3 x[82] + 58 x[83] + 82 x[84]
   + 70 x[85] + 12 x[86] + 41 x[87] + 75 x[88] + 96 x[89] + 6.8 r[0]
   + 6.9 r[1] + 1.9 r[2] + 3.2 r[3] + 2.1 r[4] + 9.4 r[5] + r[6] + 0.8 r[7]
   + r[8] + 5.1 r[9] + 2 r[10] + 1.2 r[11] + 8.5 r[12] + 8.1 r[13]
   + 9.7 r[14] + 8.9 r[15] + 2.2 r[16] + 0.9 r[17] + 1.8 r[18] + 0.7 r[19]
   + 4.6 r[20] + 1.2 r[21] + 0.9 r[22] + 2.7 r[23] + 4.5 r[24] + 1.3 r[25]
   + 8.3 r[26] + 2.4 r[27] + 9.4 r[28] + 2.4 r[29] + 0.6 r[30] + 6.4 r[31]
   + 4.8 r[32] + 1.4 r[33] + 9.7 r[34] + 2.6 r[35] + 8.9 r[36] + 4.5 r[37]
   + 6.9 r[38] + 1.9 r[39] + 9.6 r[40] + 1.4 r[41] + 4.7 r[42] + 5.4 r[43]
   + 2 r[44] + 7.9 r[45] + 1.8 r[46] + 3.8 r[47] + 6 r[48] + 8.5 r[49]
   + 3.1 r[50] + 4.9 r[51] + 5.8 r[52] + 7.7 r[53] + 6.5 r[54] + 7.2 r[55]
   + 3.8 r[56] + 8.7 r[57] + 9.7 r[58] + 4.7 r[59] + 4.9 r[60] + 5.9 r[61]
   + 9.2 r[62] + 1.9 r[63] + 10 r[64] + 6.5 r[65] + 0.9 r[66] + 3.9 r[67]
   + 9.7 r[68] + 9 r[69] + 1.8 r[70] + 6.6 r[71] + 4.7 r[72] + 6.4 r[73]
   + 10 r[74] + 7.3 r[75] + 3.1 r[76] + 1.6 r[77] + 7.7 r[78] + 3.5 r[79]
   + 3 r[80] + 3 r[81] + 0.3 r[82] + 5.8 r[83] + 8.2 r[84] + 7 r[85]
   + 1.2 r[86] + 4.1 r[87] + 7.5 r[88] + 9.6 r[89] <= 423
 primal_lower: 0.2429944141913788 x[0] + 1.803457742416765 x[1]
   + 0.5548027611762282 x[2] + 2.640144503805803 x[3]
   + 2.974426499286204 x[4] + 1.620651287395675 x[5]
   + 1.057046779079979 x[6] + 1.942909679064043 x[7]
   + 3.482055652195093 x[8] + 2.380468905342114 x[9]
   + 4.165964310593045 x[10] + 4.029721097804001 x[11]
   + 2.976971518998125 x[12] + 1.904912444624351 x[13]
   + 0.5120337092474083 x[14] + 2.790177630209369 x[15]
   + 1.232259528845719 x[16] + 1.940856170634284 x[17]
   + 0.5983992628506832 x[18] + 0.8178901020529575 x[19]
   + 1.468711883004113 x[20] + 2.606227334112156 x[21]
   + 3.011257936029969 x[22] + 3.312704015924888 x[23]
   + 3.554061606551526 x[24] + 0.125392671057812 x[25]
   + 1.22782275577406 x[26] + 2.756451180599152 x[27]
   + 0.0568889734521175 x[28] + 3.649517371488533 x[29]
   + 0.7523726175014748 x[30] + 4.307028711298386 x[31]
   + 3.064405007887825 x[32] + 1.543281484408265 x[33]
   + 1.612507420553274 x[34] + 3.81097451328057 x[35]
   + 1.890631530921145 x[36] + 1.597069634130285 x[37]
   + 2.916438287535638 x[38] + 3.040222597359784 x[39]
   + 1.020388214922851 x[40] + 3.29657436506062 x[41]
   + 0.9105077817312366 x[42] + 4.378092582106045 x[43]
   + 3.203258393195871 x[44] + 0.5304635199498033 x[45]
   + 0.8940493367600597 x[46] + 1.875342616516296 x[47]
   + 4.243727060027466 x[48] + 4.354019747123013 x[49]
   + 0.4026705348859013 x[50] + 4.499049171614171 x[51]
   + 2.166218273329024 x[52] + 3.723959873051247 x[53]
   + 1.449409902572064 x[54] + 2.314637579700526 x[55]
   + 0.9796424461176013 x[56] + 0.4146666422266719 x[57]
   + 1.11237287107279 x[58] + 0.6895561968995378 x[59]
   + 2.941986411591071 x[60] + 4.085778139491221 x[61]
   + 3.430892047941251 x[62] + 4.258799070212882 x[63]
   + 0.0222743340583039 x[64] + 1.446038205658012 x[65]
   + 2.945707517846454 x[66] + 2.255269113367555 x[67]
   + 3.082969188629268 x[68] + 4.341599708977451 x[69]
   + 2.039819981455736 x[70] + 0.3679399532162503 x[71]
   + 2.158057161000088 x[72] + 4.169848926543862 x[73]
   + 0.0870041946028035 x[74] + 1.081024330129064 x[75]
   + 0.5497935557907042 x[76] + 1.477735217426632 x[77]
   + 1.710983038175382 x[78] + 3.884633500131169 x[79]
   + 1.909194603374786 x[80] + 1.333798392164429 x[81]
   + 1.903574087193306 x[82] + 3.476099326942532 x[83]
   + 1.419828088754413 x[84] + 3.031656271320714 x[85]
   + 2.730757874082722 x[86] + 2.570429574156427 x[87]
   + 0.5282055933275912 x[88] + 0.129766728673767 x[89] + 75 u[0] + 84 u[1]
   + 98 u[2] + 43 u[3] + 92 u[4] + 49 u[5] + 33 u[6] + 55 u[7] + 93 u[8]
   + 54 u[9] + 91 u[10] + 39 u[11] + 64 u[12] + 32 u[13] + 88 u[14]
   + 84 u[15] + 77 u[16] + 16 u[17] + 29 u[18] + 6 u[19] + 17 u[20]
   + 43 u[21] + 56 u[22] + 10 u[23] + 72 u[24] + 8 u[25] + 90 u[26]
   + 11 u[27] + 21 u[28] + 95 u[29] + 69 u[30] + 31 u[31] + 27 u[32]
   + 41 u[33] + 16 u[34] + 33 u[35] + 16 u[36] + 12 u[37] + 80 u[38]
   + 10 u[39] + 63 u[40] + 57 u[41] + 46 u[42] + 41 u[43] + 11 u[44]
   + 6 u[45] + 61 u[46] + 9 u[47] + 7 u[48] + 64 u[49] + 78 u[50]
   + 92 u[51] + 25 u[52] + 8 u[53] + 56 u[54] + 43 u[55] + 29 u[56]
   + 38 u[57] + 76 u[58] + 38 u[59] + 52 u[60] + 10 u[61] + 99 u[62]
   + 10 u[63] + 43 u[64] + 12 u[65] + 84 u[66] + 10 u[67] + 28 u[68]
   + 37 u[69] + 41 u[70] + 77 u[71] + 34 u[72] + 31 u[73] + 79 u[74]
   + 96 u[75] + 70 u[76] + 7 u[77] + 8 u[78] + 94 u[79] + 37 u[80]
   + 85 u[81] + 82 u[82] + 41 u[83] + 45 u[84] + 49 u[85] + 39 u[86]
   + 36 u[87] + 94 u[88] + 43 u[89] <= 77925
 mccormick1[0]: - u[0] + r[0] <= 0
 mccormick1[1]: - u[1] + r[1] <= 0
 mccormick1[2]: - u[2] + r[2] <= 0
 mccormick1[3]: - u[3] + r[3] <= 0
 mccormick1[4]: - u[4] + r[4] <= 0
 mccormick1[5]: - u[5] + r[5] <= 0
 mccormick1[6]: - u[6] + r[6] <= 0
 mccormick1[7]: - u[7] + r[7] <= 0
 mccormick1[8]: - u[8] + r[8] <= 0
 mccormick1[9]: - u[9] + r[9] <= 0
 mccormick1[10]: - u[10] + r[10] <= 0
 mccormick1[11]: - u[11] + r[11] <= 0
 mccormick1[12]: - u[12] + r[12] <= 0
 mccormick1[13]: - u[13] + r[13] <= 0
 mccormick1[14]: - u[14] + r[14] <= 0
 mccormick1[15]: - u[15] + r[15] <= 0
 mccormick1[16]: - u[16] + r[16] <= 0
 mccormick1[17]: - u[17] + r[17] <= 0
 mccormick1[18]: - u[18] + r[18] <= 0
 mccormick1[19]: - u[19] + r[19] <= 0
 mccormick1[20]: - u[20] + r[20] <= 0
 mccormick1[21]: - u[21] + r[21] <= 0
 mccormick1[22]: - u[22] + r[22] <= 0
 mccormick1[23]: - u[23] + r[23] <= 0
 mccormick1[24]: - u[24] + r[24] <= 0
 mccormick1[25]: - u[25] + r[25] <= 0
 mccormick1[26]: - u[26] + r[26] <= 0
 mccormick1[27]: - u[27] + r[27] <= 0
 mccormick1[28]: - u[28] + r[28] <= 0
 mccormick1[29]: - u[29] + r[29] <= 0
 mccormick1[30]: - u[30] + r[30] <= 0
 mccormick1[31]: - u[31] + r[31] <= 0
 mccormick1[32]: - u[32] + r[32] <= 0
 mccormick1[33]: - u[33] + r[33] <= 0
 mccormick1[34]: - u[34] + r[34] <= 0
 mccormick1[35]: - u[35] + r[35] <= 0
 mccormick1[36]: - u[36] + r[36] <= 0
 mccormick1[37]: - u[37] + r[37] <= 0
 mccormick1[38]: - u[38] + r[38] <= 0
 mccormick1[39]: - u[39] + r[39] <= 0
 mccormick1[40]: - u[40] + r[40] <= 0
 mccormick1[41]: - u[41] + r[41] <= 0
 mccormick1[42]: - u[42] + r[42] <= 0
 mccormick1[43]: - u[43] + r[43] <= 0
 mccormick1[44]: - u[44] + r[44] <= 0
 mccormick1[45]: - u[45] + r[45] <= 0
 mccormick1[46]: - u[46] + r[46] <= 0
 mccormick1[47]: - u[47] + r[47] <= 0
 mccormick1[48]: - u[48] + r[48] <= 0
 mccormick1[49]: - u[49] + r[49] <= 0
 mccormick1[50]: - u[50] + r[50] <= 0
 mccormick1[51]: - u[51] + r[51] <= 0
 mccormick1[52]: - u[52] + r[52] <= 0
 mccormick1[53]: - u[53] + r[53] <= 0
 mccormick1[54]: - u[54] + r[54] <= 0
 mccormick1[55]: - u[55] + r[55] <= 0
 mccormick1[56]: - u[56] + r[56] <= 0
 mccormick1[57]: - u[57] + r[57] <= 0
 mccormick1[58]: - u[58] + r[58] <= 0
 mccormick1[59]: - u[59] + r[59] <= 0
 mccormick1[60]: - u[60] + r[60] <= 0
 mccormick1[61]: - u[61] + r[61] <= 0
 mccormick1[62]: - u[62] + r[62] <= 0
 mccormick1[63]: - u[63] + r[63] <= 0
 mccormick1[64]: - u[64] + r[64] <= 0
 mccormick1[65]: - u[65] + r[65] <= 0
 mccormick1[66]: - u[66] + r[66] <= 0
 mccormick1[67]: - u[67] + r[67] <= 0
 mccormick1[68]: - u[68] + r[68] <= 0
 mccormick1[69]: - u[69] + r[69] <= 0
 mccormick1[70]: - u[70] + r[70] <= 0
 mccormick1[71]: - u[71] + r[71] <= 0
 mccormick1[72]: - u[72] + r[72] <= 0
 mccormick1[73]: - u[73] + r[73] <= 0
 mccormick1[74]: - u[74] + r[74] <= 0
 mccormick1[75]: - u[75] + r[75] <= 0
 mccormick1[76]: - u[76] + r[76] <= 0
 mccormick1[77]: - u[77] + r[77] <= 0
 mccormick1[78]: - u[78] + r[78] <= 0
 mccormick1[79]: - u[79] + r[79] <= 0
 mccormick1[80]: - u[80] + r[80] <= 0
 mccormick1[81]: - u[81] + r[81] <= 0
 mccormick1[82]: - u[82] + r[82] <= 0
 mccormick1[83]: - u[83] + r[83] <= 0
 mccormick1[84]: - u[84] + r[84] <= 0
 mccormick1[85]: - u[85] + r[85] <= 0
 mccormick1[86]: - u[86] + r[86] <= 0
 mccormick1[87]: - u[87] + r[87] <= 0
 mccormick1[88]: - u[88] + r[88] <= 0
 mccormick1[89]: - u[89] + r[89] <= 0
 mccormick2[0]: - x[0] + r[0] <= 0
 mccormick2[1]: - x[1] + r[1] <= 0
 mccormick2[2]: - x[2] + r[2] <= 0
 mccormick2[3]: - x[3] + r[3] <= 0
 mccormick2[4]: - x[4] + r[4] <= 0
 mccormick2[5]: - x[5] + r[5] <= 0
 mccormick2[6]: - x[6] + r[6] <= 0
 mccormick2[7]: - x[7] + r[7] <= 0
 mccormick2[8]: - x[8] + r[8] <= 0
 mccormick2[9]: - x[9] + r[9] <= 0
 mccormick2[10]: - x[10] + r[10] <= 0
 mccormick2[11]: - x[11] + r[11] <= 0
 mccormick2[12]: - x[12] + r[12] <= 0
 mccormick2[13]: - x[13] + r[13] <= 0
 mccormick2[14]: - x[14] + r[14] <= 0
 mccormick2[15]: - x[15] + r[15] <= 0
 mccormick2[16]: - x[16] + r[16] <= 0
 mccormick2[17]: - x[17] + r[17] <= 0
 mccormick2[18]: - x[18] + r[18] <= 0
 mccormick2[19]: - x[19] + r[19] <= 0
 mccormick2[20]: - x[20] + r[20] <= 0
 mccormick2[21]: - x[21] + r[21] <= 0
 mccormick2[22]: - x[22] + r[22] <= 0
 mccormick2[23]: - x[23] + r[23] <= 0
 mccormick2[24]: - x[24] + r[24] <= 0
 mccormick2[25]: - x[25] + r[25] <= 0
 mccormick2[26]: - x[26] + r[26] <= 0
 mccormick2[27]: - x[27] + r[27] <= 0
 mccormick2[28]: - x[28] + r[28] <= 0
 mccormick2[29]: - x[29] + r[29] <= 0
 mccormick2[30]: - x[30] + r[30] <= 0
 mccormick2[31]: - x[31] + r[31] <= 0
 mccormick2[32]: - x[32] + r[32] <= 0
 mccormick2[33]: - x[33] + r[33] <= 0
 mccormick2[34]: - x[34] + r[34] <= 0
 mccormick2[35]: - x[35] + r[35] <= 0
 mccormick2[36]: - x[36] + r[36] <= 0
 mccormick2[37]: - x[37] + r[37] <= 0
 mccormick2[38]: - x[38] + r[38] <= 0
 mccormick2[39]: - x[39] + r[39] <= 0
 mccormick2[40]: - x[40] + r[40] <= 0
 mccormick2[41]: - x[41] + r[41] <= 0
 mccormick2[42]: - x[42] + r[42] <= 0
 mccormick2[43]: - x[43] + r[43] <= 0
 mccormick2[44]: - x[44] + r[44] <= 0
 mccormick2[45]: - x[45] + r[45] <= 0
 mccormick2[46]: - x[46] + r[46] <= 0
 mccormick2[47]: - x[47] + r[47] <= 0
 mccormick2[48]: - x[48] + r[48] <= 0
 mccormick2[49]: - x[49] + r[49] <= 0
 mccormick2[50]: - x[50] + r[50] <= 0
 mccormick2[51]: - x[51] + r[51] <= 0
 mccormick2[52]: - x[52] + r[52] <= 0
 mccormick2[53]: - x[53] + r[53] <= 0
 mccormick2[54]: - x[54] + r[54] <= 0
 mccormick2[55]: - x[55] + r[55] <= 0
 mccormick2[56]: - x[56] + r[56] <= 0
 mccormick2[57]: - x[57] + r[57] <= 0
 mccormick2[58]: - x[58] + r[58] <= 0
 mccormick2[59]: - x[59] + r[59] <= 0
 mccormick2[60]: - x[60] + r[60] <= 0
 mccormick2[61]: - x[61] + r[61] <= 0
 mccormick2[62]: - x[62] + r[62] <= 0
 mccormick2[63]: - x[63] + r[63] <= 0
 mccormick2[64]: - x[64] + r[64] <= 0
 mccormick2[65]: - x[65] + r[65] <= 0
 mccormick2[66]: - x[66] + r[66] <= 0
 mccormick2[67]: - x[67] + r[67] <= 0
 mccormick2[68]: - x[68] + r[68] <= 0
 mccormick2[69]: - x[69] + r[69] <= 0
 mccormick2[70]: - x[70] + r[70] <= 0
 mccormick2[71]: - x[71] + r[71] <= 0
 mccormick2[72]: - x[72] + r[72] <= 0
 mccormick2[73]: - x[73] + r[73] <= 0
 mccormick2[74]: - x[74] + r[74] <= 0
 mccormick2[75]: - x[75] + r[75] <= 0
 mccormick2[76]: - x[76] + r[76] <= 0
 mccormick2[77]: - x[77] + r[77] <= 0
 mccormick2[78]: - x[78] + r[78] <= 0
 mccormick2[79]: - x[79] + r[79] <= 0
 mccormick2[80]: - x[80] + r[80] <= 0
 mccormick2[81]: - x[81] + r[81] <= 0
 mccormick2[82]: - x[82] + r[82] <= 0
 mccormick2[83]: - x[83] + r[83] <= 0
 mccormick2[84]: - x[84] + r[84] <= 0
 mccormick2[85]: - x[85] + r[85] <= 0
 mccormick2[86]: - x[86] + r[86] <= 0
 mccormick2[87]: - x[87] + r[87] <= 0
 mccormick2[88]: - x[88] + r[88] <= 0
 mccormick2[89]: - x[89] + r[89] <= 0
 mccormick3[0]: x[0] + u[0] - r[0] <= 1
 mccormick3[1]: x[1] + u[1] - r[1] <= 1
 mccormick3[2]: x[2] + u[2] - r[2] <= 1
 mccormick3[3]: x[3] + u[3] - r[3] <= 1
 mccormick3[4]: x[4] + u[4] - r[4] <= 1
 mccormick3[5]: x[5] + u[5] - r[5] <= 1
 mccormick3[6]: x[6] + u[6] - r[6] <= 1
 mccormick3[7]: x[7] + u[7] - r[7] <= 1
 mccormick3[8]: x[8] + u[8] - r[8] <= 1
 mccormick3[9]: x[9] + u[9] - r[9] <= 1
 mccormick3[10]: x[10] + u[10] - r[10] <= 1
 mccormick3[11]: x[11] + u[11] - r[11] <= 1
 mccormick3[12]: x[12] + u[12] - r[12] <= 1
 mccormick3[13]: x[13] + u[13] - r[13] <= 1
 mccormick3[14]: x[14] + u[14] - r[14] <= 1
 mccormick3[15]: x[15] + u[15] - r[15] <= 1
 mccormick3[16]: x[16] + u[16] - r[16] <= 1
 mccormick3[17]: x[17] + u[17] - r[17] <= 1
 mccormick3[18]: x[18] + u[18] - r[18] <= 1
 mccormick3[19]: x[19] + u[19] - r[19] <= 1
 mccormick3[20]: x[20] + u[20] - r[20] <= 1
 mccormick3[21]: x[21] + u[21] - r[21] <= 1
 mccormick3[22]: x[22] + u[22] - r[22] <= 1
 mccormick3[23]: x[23] + u[23] - r[23] <= 1
 mccormick3[24]: x[24] + u[24] - r[24] <= 1
 mccormick3[25]: x[25] + u[25] - r[25] <= 1
 mccormick3[26]: x[26] + u[26] - r[26] <= 1
 mccormick3[27]: x[27] + u[27] - r[27] <= 1
 mccormick3[28]: x[28] + u[28] - r[28] <= 1
 mccormick3[29]: x[29] + u[29] - r[29] <= 1
 mccormick3[30]: x[30] + u[30] - r[30] <= 1
 mccormick3[31]: x[31] + u[31] - r[31] <= 1
 mccormick3[32]: x[32] + u[32] - r[32] <= 1
 mccormick3[33]: x[33] + u[33] - r[33] <= 1
 mccormick3[34]: x[34] + u[34] - r[34] <= 1
 mccormick3[35]: x[35] + u[35] - r[35] <= 1
 mccormick3[36]: x[36] + u[36] - r[36] <= 1
 mccormick3[37]: x[37] + u[37] - r[37] <= 1
 mccormick3[38]: x[38] + u[38] - r[38] <= 1
 mccormick3[39]: x[39] + u[39] - r[39] <= 1
 mccormick3[40]: x[40] + u[40] - r[40] <= 1
 mccormick3[41]: x[41] + u[41] - r[41] <= 1
 mccormick3[42]: x[42] + u[42] - r[42] <= 1
 mccormick3[43]: x[43] + u[43] - r[43] <= 1
 mccormick3[44]: x[44] + u[44] - r[44] <= 1
 mccormick3[45]: x[45] + u[45] - r[45] <= 1
 mccormick3[46]: x[46] + u[46] - r[46] <= 1
 mccormick3[47]: x[47] + u[47] - r[47] <= 1
 mccormick3[48]: x[48] + u[48] - r[48] <= 1
 mccormick3[49]: x[49] + u[49] - r[49] <= 1
 mccormick3[50]: x[50] + u[50] - r[50] <= 1
 mccormick3[51]: x[51] + u[51] - r[51] <= 1
 mccormick3[52]: x[52] + u[52] - r[52] <= 1
 mccormick3[53]: x[53] + u[53] - r[53] <= 1
 mccormick3[54]: x[54] + u[54] - r[54] <= 1
 mccormick3[55]: x[55] + u[55] - r[55] <= 1
 mccormick3[56]: x[56] + u[56] - r[56] <= 1
 mccormick3[57]: x[57] + u[57] - r[57] <= 1
 mccormick3[58]: x[58] + u[58] - r[58] <= 1
 mccormick3[59]: x[59] + u[59] - r[59] <= 1
 mccormick3[60]: x[60] + u[60] - r[60] <= 1
 mccormick3[61]: x[61] + u[61] - r[61] <= 1
 mccormick3[62]: x[62] + u[62] - r[62] <= 1
 mccormick3[63]: x[63] + u[63] - r[63] <= 1
 mccormick3[64]: x[64] + u[64] - r[64] <= 1
 mccormick3[65]: x[65] + u[65] - r[65] <= 1
 mccormick3[66]: x[66] + u[66] - r[66] <= 1
 mccormick3[67]: x[67] + u[67] - r[67] <= 1
 mccormick3[68]: x[68] + u[68] - r[68] <= 1
 mccormick3[69]: x[69] + u[69] - r[69] <= 1
 mccormick3[70]: x[70] + u[70] - r[70] <= 1
 mccormick3[71]: x[71] + u[71] - r[71] <= 1
 mccormick3[72]: x[72] + u[72] - r[72] <= 1
 mccormick3[73]: x[73] + u[73] - r[73] <= 1
 mccormick3[74]: x[74] + u[74] - r[74] <= 1
 mccormick3[75]: x[75] + u[75] - r[75] <= 1
 mccormick3[76]: x[76] + u[76] - r[76] <= 1
 mccormick3[77]: x[77] + u[77] - r[77] <= 1
 mccormick3[78]: x[78] + u[78] - r[78] <= 1
 mccormick3[79]: x[79] + u[79] - r[79] <= 1
 mccormick3[80]: x[80] + u[80] - r[80] <= 1
 mccormick3[81]: x[81] + u[81] - r[81] <= 1
 mccormick3[82]: x[82] + u[82] - r[82] <= 1
 mccormick3[83]: x[83] + u[83] - r[83] <= 1
 mccormick3[84]: x[84] + u[84] - r[84] <= 1
 mccormick3[85]: x[85] + u[85] - r[85] <= 1
 mccormick3[86]: x[86] + u[86] - r[86] <= 1
 mccormick3[87]: x[87] + u[87] - r[87] <= 1
 mccormick3[88]: x[88] + u[88] - r[88] <= 1
 mccormick3[89]: x[89] + u[89] - r[89] <= 1
Bounds
Binaries
 x[0] x[1] x[2] x[3] x[4] x[5] x[6] x[7] x[8] x[9] x[10] x[11] x[12] x[13]
 x[14] x[15] x[16] x[17] x[18] x[19] x[20] x[21] x[22] x[23] x[24] x[25]
 x[26] x[27] x[28] x[29] x[30] x[31] x[32] x[33] x[34] x[35] x[36] x[37]
 x[38] x[39] x[40] x[41] x[42] x[43] x[44] x[45] x[46] x[47] x[48] x[49]
 x[50] x[51] x[52] x[53] x[54] x[55] x[56] x[57] x[58] x[59] x[60] x[61]
 x[62] x[63] x[64] x[65] x[66] x[67] x[68] x[69] x[70] x[71] x[72] x[73]
 x[74] x[75] x[76] x[77] x[78] x[79] x[80] x[81] x[82] x[83] x[84] x[85]
 x[86] x[87] x[88] x[89] u[0] u[1] u[2] u[3] u[4] u[5] u[6] u[7] u[8] u[9]
 u[10] u[11] u[12] u[13] u[14] u[15] u[16] u[17] u[18] u[19] u[20] u[21]
 u[22] u[23] u[24] u[25] u[26] u[27] u[28] u[29] u[30] u[31] u[32] u[33]
 u[34] u[35] u[36] u[37] u[38] u[39] u[40] u[41] u[42] u[43] u[44] u[45]
 u[46] u[47] u[48] u[49] u[50] u[51] u[52] u[53] u[54] u[55] u[56] u[57]
 u[58] u[59] u[60] u[61] u[62] u[63] u[64] u[65] u[66] u[67] u[68] u[69]
 u[70] u[71] u[72] u[73] u[74] u[75] u[76] u[77] u[78] u[79] u[80] u[81]
 u[82] u[83] u[84] u[85] u[86] u[87] u[88] u[89] r[0] r[1] r[2] r[3] r[4]
 r[5] r[6] r[7] r[8] r[9] r[10] r[11] r[12] r[13] r[14] r[15] r[16] r[17]
 r[18] r[19] r[20] r[21] r[22] r[23] r[24] r[25] r[26] r[27] r[28] r[29]
 r[30] r[31] r[32] r[33] r[34] r[35] r[36] r[37] r[38] r[39] r[40] r[41]
 r[42] r[43] r[44] r[45] r[46] r[47] r[48] r[49] r[50] r[51] r[52] r[53]
 r[54] r[55] r[56] r[57] r[58] r[59] r[60] r[61] r[62] r[63] r[64] r[65]
 r[66] r[67] r[68] r[69] r[70] r[71] r[72] r[73] r[74] r[75] r[76] r[77]
 r[78] r[79] r[80] r[81] r[82] r[83] r[84] r[85] r[86] r[87] r[88] r[89]
End
