instances/knapsack/discrete/knapsack_90_6.kp
67703
90
423

68 6.8 57
69 6.9 37
19 1.9 27
32 3.2 43
21 2.1 60
94 9.4 76
10 1.0 20
8 0.8 26
10 1.0 5
51 5.1 17
20 2.0 66
12 1.2 94
85 8.5 42
81 8.1 5
97 9.7 2
89 8.9 15
22 2.2 85
9 0.9 1
18 1.8 53
7 0.7 20
46 4.6 32
12 1.2 22
9 0.9 35
27 2.7 11
45 4.5 96
13 1.3 37
83 8.3 51
24 2.4 98
94 9.4 41
24 2.4 91
6 0.6 8
64 6.4 35
48 4.8 99
14 1.4 66
97 9.7 62
26 2.6 68
89 8.9 72
45 4.5 70
69 6.9 69
19 1.9 26
96 9.6 7
14 1.4 20
47 4.7 72
54 5.4 70
20 2.0 17
79 7.9 30
18 1.8 43
38 3.8 99
60 6.0 55
85 8.5 80
31 3.1 62
49 4.9 73
58 5.8 18
77 7.7 12
65 6.5 55
72 7.2 21
38 3.8 85
87 8.7 23
97 9.7 15
47 4.7 70
49 4.9 51
59 5.9 49
92 9.2 28
19 1.9 24
100 10.0 49
65 6.5 64
9 0.9 32
39 3.9 72
97 9.7 55
90 9.0 28
18 1.8 76
66 6.6 10
47 4.7 76
64 6.4 32
100 10.0 41
73 7.3 45
31 3.1 37
16 1.6 96
77 7.7 35
35 3.5 66
30 3.0 26
30 3.0 1
3 0.3 40
58 5.8 77
82 8.2 64
70 7.0 3
12 1.2 29
41 4.1 30
75 7.5 99
96 9.6 5

77925
407

[0.24299441419137877 1.803457742416765 0.5548027611762282 2.6401445038058027 2.9744264992862037 1.6206512873956753 1.0570467790799793 1.9429096790640434 3.4820556521950934 2.3804689053421138 4.165964310593045 4.029721097804001 2.9769715189981247 1.9049124446243506 0.5120337092474083 2.790177630209369 1.2322595288457194 1.9408561706342844 0.5983992628506832 0.8178901020529575 1.4687118830041128 2.606227334112156 3.0112579360299687 3.312704015924888 3.554061606551526 0.125392671057812 1.2278227557740595 2.756451180599152 0.05688897345211748 3.649517371488533 0.7523726175014748 4.307028711298386 3.0644050078878253 1.5432814844082647 1.6125074205532741 3.8109745132805704 1.8906315309211452 1.5970696341302848 2.916438287535638 3.0402225973597843 1.020388214922851 3.2965743650606196 0.9105077817312366 4.378092582106045 3.203258393195871 0.5304635199498033 0.8940493367600597 1.8753426165162963 4.243727060027466 4.354019747123013 0.40267053488590127 4.499049171614171 2.1662182733290236 3.723959873051247 1.4494099025720641 2.3146375797005256 0.9796424461176013 0.41466664222667193 1.1123728710727903 0.6895561968995378 2.9419864115910705 4.085778139491221 3.4308920479412515 4.258799070212882 0.022274334058303875 1.4460382056580119 2.9457075178464542 2.255269113367555 3.0829691886292685 4.341599708977451 2.0398199814557363 0.3679399532162503 2.158057161000088 4.169848926543862 0.08700419460280354 1.0810243301290638 0.5497935557907042 1.477735217426632 1.7109830381753823 3.8846335001311694 1.909194603374786 1.3337983921644285 1.9035740871933065 3.476099326942532 1.419828088754413 3.0316562713207142 2.730757874082722 2.5704295741564267 0.5282055933275912 0.12976672867376696]

[75 84 98 43 92 49 33 55 93 54 91 39 64 32 88 84 77 16 29 6 17 43 56 10 72 8 90 11 21 95 69 31 27 41 16 33 16 12 80 10 63 57 46 41 11 6 61 9 7 64 78 92 25 8 56 43 29 38 76 38 52 10 99 10 43 12 84 10 28 37 41 77 34 31 79 96 70 7 8 94 37 85 82 41 45 49 39 36 94 43]
